\ Equation counts
\     Total        E        G        L        N        X        C        B
\         1        0        0        1        0        0        0        0
\ 
\ Variable counts
\                  x        b        i      s1s      s2s       sc       si
\     Total     cont   binary  integer     sos1     sos2    scont     sint
\        10        0        0       10        0        0        0        0
\ 
\ Nonzero counts
\     Total    const       NL      DLL
\        20       10       10        0
\ 
Minimize
 obj: - i2 - i3 - i4 - i5 - i6 - i7 - i8 - i9 - i10 - i11

Subject To
 e2: - 7.45422678604453e-2 i2 - 6.05518448846168e-2 i3 - .107213563760389 i4 - .133517550184507 i5 - 3.50835273588374e-2 i6 
  - .172842180379538 i7 - .167136633802493 i8 - 4.8698282657444e-2 i9 - .116545517321418 i10 - 8.38686317903121e-2 i11
   + [ 7.45422678604453e-2 i2^2 + 6.05518448846168e-2 i3^2 + .107213563760389 i4^2 + .133517550184507 i5^2 
  + 3.50835273588374e-2 i6^2 + .172842180379538 i7^2 + .167136633802493 i8^2 + 4.8698282657444e-2 i9^2 
  + .116545517321418 i10^2 + 8.38686317903121e-2 i11^2 ] <= -9.9999999999989e-5

Bounds
 -1 <= i2 <= 2
 -1 <= i3 <= 2
 -1 <= i4 <= 2
 -1 <= i5 <= 2
 -1 <= i6 <= 2
 -1 <= i7 <= 2
 -1 <= i8 <= 2
 -1 <= i9 <= 2
 -1 <= i10 <= 2
 -1 <= i11 <= 2

General
 i2 i3 i4 i5 i6 i7 i8 i9 i10 i11

End
